c 
p cnf 10 40
-3 -10 5 9 0
-4 -8 0
-6 0
3 -4 8 7 0
-2 -8 0
7 3 5 -4 0
-4 6 0
-6 5 -8 0
-8 -3 0
-4 9 3 0
-4 9 0
9 5 -2 1 -10 0
8 -3 2 4 7 0
5 10 0
5 -10 7 0
9 0
-3 1 -10 4 8 0
-5 -10 -3 -7 -2 0
6 0
-1 -2 -4 0
5 -2 -4 -6 0
8 7 -9 0
-6 0
5 0
4 -8 9 10 -5 0
-7 5 0
-8 -10 4 3 0
-10 0
-8 10 5 0
5 0
-6 2 0
3 0
4 0
6 1 -8 -3 0
-7 4 0
-8 -7 0
1 -2 -9 0
-2 -8 -5 1 7 0
10 -1 -7 -3 6 0
-7 5 0
